8914.0
[1, 0, 0, 1, 0, 0, 1, 0, 0, 0, 1, 0, 0, 1, 0, 1, 0, 1, 0, 1]
[0, 3, 10, 10, 19, 13, 17, 13, 3, 17, 15, 19, 19, 6, 13, 3, 15, 10, 17, 6, 15, 15, 15, 19, 6, 17, 0, 17, 3, 17, 13, 15, 13, 0, 3, 10, 3, 19, 19, 13, 6, 0, 15, 0, 3, 13, 10, 10, 19, 6]